p cnf 30 28
e 1 2 7 8 13 14 19 20 25 26 0
a 3 5 9 11 15 17 21 23 27 29 0
e 4 6 10 12 16 18 22 24 28 30 0
1 3 4 0
-1 -3 -4 0
3 5 6 0
-3 -5 -6 0
5 7 8 0
-5 -7 -8 0
7 9 10 0
-7 -9 -10 0
9 11 12 0
-9 -11 -12 0
11 13 14 0
-11 -13 -14 0
13 15 16 0
-13 -15 -16 0
15 17 18 0
-15 -17 -18 0
17 19 20 0
-17 -19 -20 0
19 21 22 0
-19 -21 -22 0
21 23 24 0
-21 -23 -24 0
23 25 26 0
-23 -25 -26 0
25 27 28 0
-25 -27 -28 0
27 29 30 0
-27 -29 -30 0
